
-7.52
-7.28
-7.24
-7.16
-7.0
-6.88
-6.76
-6.52
-6.28
-6.2
-6.16
-6.16
-6.12
-6.04
-6.04
-5.96
-5.92
-5.88
-5.8
-5.8
-1.88
-1.4
-0.92
-0.92
-0.92
-0.92
-0.92
-0.68
-0.68
-0.44
-0.44
-0.44
-0.44
-0.44
-0.24
-0.24
-0.24